nEmpreses = 42;
nReunions = 125;
nTaules = 18;
nFrangesTotal = 8;
nForats = 8;

reunions = [|66,2,47,12,4,1,5,3,
|0,67,25,92,71,100,6,0,
|93,51,118,9,8,79,7,72,
|39,94,60,119,48,19,13,26,
|10,112,80,61,11,49,7,87,
|16,14,15,12,17,18,13,40,
|0,14,58,0,0,0,0,0,
|33,120,15,68,52,1,0,0,
|81,34,113,106,8,53,69,121,
|16,2,54,9,82,35,122,114,
|20,62,107,88,22,19,41,21,
|0,0,36,83,17,77,59,3,
|0,0,23,24,0,0,0,0,
|28,29,25,32,30,27,31,26,
|10,42,70,101,95,27,55,108,
|0,0,0,0,43,96,0,0,
|33,34,36,37,115,35,38,0,
|39,42,97,45,43,44,41,40,
|0,0,89,46,0,0,0,0,
|0,84,73,37,123,0,0,0,
|0,0,47,46,48,49,50,102,
|0,51,54,57,52,53,55,56,
|0,0,0,116,11,109,0,0,
|20,103,23,78,110,44,63,0,
|104,74,58,45,64,117,59,21,
|28,62,60,61,64,124,63,65,
|66,67,70,68,90,18,69,56,
|76,74,73,57,71,75,98,72,
|0,0,0,0,0,75,6,99,
|125,29,105,24,4,91,111,65,
|0,0,0,0,0,0,38,85,
|0,0,0,78,30,77,5,0,
|81,84,80,83,82,79,86,85,
|0,0,89,88,90,91,50,87,
|93,94,97,92,95,96,98,99,
|104,103,105,101,22,100,31,102,
|0,0,0,0,0,0,0,0,
|0,0,0,32,0,0,0,0,
|0,0,107,106,110,109,111,108,
|0,0,0,0,0,0,0,0,
|76,112,113,116,115,117,86,114,
|125,120,118,119,123,124,122,121,
|];

fixades = [0, 0, 0, 0, 0, 0, 0, 0, 1, 0, 0, 2, 0, 0, 0, 0, 0, 0, 0, 0, 0, 0, 0, 3, 0, 0, 0, 0, 0, 0, 0, 4, 0, 0, 0, 0, 5, 0, 0, 0, 0, 0, 0, 0, 6, 7, 0, 0, 0, 0, 0, 0, 0, 0, 0, 0, 8, 0, 0, 0, 9, 0, 0, 0, 0, 0, 0, 10, 0, 0, 0, 0, 0, 0, 0, 0, 0, 11, 0, 0, 0, 0, 12, 0, 0, 0, 0, 13, 0, 0, 0, 14, 0, 0, 0, 0, 0, 0, 0, 0, 15, 0, 0, 0, 0, 16, 0, 0, 0, 0, 0, 0, 0, 0, 0, 17, 0, 0, 18, 0, 0, 0, 0, 0, 0, ];


listReunions = [|1, 8, 6, 
|1, 10, 2, 
|1, 12, 8, 
|1, 30, 5, 
|1, 32, 7, 
|2, 29, 7, 
|3, 5, 7, 
|3, 9, 5, 
|3, 10, 4, 
|5, 15, 1, 
|5, 23, 5, 
|6, 1, 4, 
|6, 4, 7, 
|6, 7, 2, 
|6, 8, 3, 
|6, 10, 1, 
|6, 12, 5, 
|6, 27, 6, 
|11, 4, 6, 
|11, 24, 1, 
|11, 25, 8, 
|11, 36, 5, 
|13, 24, 3, 
|13, 30, 4, 
|14, 2, 3, 
|14, 4, 8, 
|14, 15, 6, 
|14, 26, 1, 
|14, 30, 2, 
|14, 32, 5, 
|14, 36, 7, 
|14, 38, 4, 
|17, 8, 1, 
|17, 9, 2, 
|17, 10, 6, 
|17, 12, 3, 
|17, 20, 4, 
|17, 31, 7, 
|18, 4, 1, 
|18, 6, 8, 
|18, 11, 7, 
|18, 15, 2, 
|18, 16, 5, 
|18, 24, 6, 
|18, 25, 4, 
|19, 21, 4, 
|21, 1, 3, 
|21, 4, 5, 
|21, 5, 6, 
|21, 34, 7, 
|22, 3, 2, 
|22, 8, 5, 
|22, 9, 6, 
|22, 10, 3, 
|22, 15, 7, 
|22, 27, 8, 
|22, 28, 4, 
|25, 7, 3, 
|25, 12, 7, 
|26, 4, 3, 
|26, 5, 4, 
|26, 11, 2, 
|26, 24, 7, 
|26, 25, 5, 
|26, 30, 8, 
|27, 1, 1, 
|27, 2, 2, 
|27, 8, 4, 
|27, 9, 7, 
|27, 15, 3, 
|28, 2, 5, 
|28, 3, 8, 
|28, 20, 3, 
|28, 25, 2, 
|28, 29, 6, 
|28, 41, 1, 
|32, 12, 6, 
|32, 24, 4, 
|33, 3, 6, 
|33, 5, 3, 
|33, 9, 1, 
|33, 10, 5, 
|33, 12, 4, 
|33, 20, 2, 
|33, 31, 8, 
|33, 41, 7, 
|34, 5, 8, 
|34, 11, 4, 
|34, 19, 3, 
|34, 27, 5, 
|34, 30, 6, 
|35, 2, 4, 
|35, 3, 1, 
|35, 4, 2, 
|35, 15, 5, 
|35, 16, 6, 
|35, 18, 3, 
|35, 28, 7, 
|35, 29, 8, 
|36, 2, 6, 
|36, 15, 4, 
|36, 21, 8, 
|36, 24, 2, 
|36, 25, 1, 
|36, 30, 3, 
|39, 9, 4, 
|39, 11, 3, 
|39, 15, 8, 
|39, 23, 6, 
|39, 24, 5, 
|39, 30, 7, 
|41, 5, 2, 
|41, 9, 3, 
|41, 10, 8, 
|41, 17, 5, 
|41, 23, 4, 
|41, 25, 6, 
|42, 3, 3, 
|42, 4, 4, 
|42, 8, 2, 
|42, 9, 8, 
|42, 10, 7, 
|42, 20, 5, 
|42, 26, 6, 
|42, 30, 1, 
|];
